n = 6;
Min = 1;
Max = 3;
Distancia = [|0, 357, 201, 292, 135, 426,
              |357, 0, 492, 367, 373, 203,
              |201, 492, 0, 322, 425, 317,
              |292, 367, 322, 0, 205, 156,
              |135, 373, 425, 205, 0, 478,
              |426, 203, 317, 156, 478, 0|];